(set-logic QF_LRA)
(declare-fun fluent_robot_free_r0@1 () Bool)
(declare-fun fluent_robot_at_r0_p0@0 () Bool)
(declare-fun fluent_robot_at_r0_p1@0 () Bool)
(declare-fun fluent_ready_plt0_p0_t0@1 () Bool)
(declare-fun fluent_robot_at_r0_p2@0 () Bool)
(declare-fun fluent_ready_plt0_p1_t0@1 () Bool)
(declare-fun fluent_robot_free_r0@0 () Bool)
(declare-fun fluent_ready_plt0_p2_t0@1 () Bool)
(declare-fun fluent_pallet_at_plt0_p0@0 () Bool)
(declare-fun fluent_pallet_at_plt0_p1@0 () Bool)
(declare-fun fluent_pallet_at_plt0_p2@0 () Bool)
(declare-fun fluent_pallet_at_plt0_p0@1 () Bool)
(declare-fun fluent_battery_level_r0@0 () Real)
(declare-fun fluent_pallet_at_plt0_p1@1 () Bool)
(declare-fun fluent_pallet_at_plt0_p2@1 () Bool)
(declare-fun fluent_robot_has_r0_plt0@1 () Bool)
(declare-fun act_make_treatment@1 () Bool)
(declare-fun fluent_treated_plt0_t0@1 () Bool)
(declare-fun fluent_position_free_p0@1 () Bool)
(declare-fun fluent_position_free_p0@0 () Bool)
(declare-fun fluent_position_free_p1@0 () Bool)
(declare-fun fluent_position_free_p2@0 () Bool)
(declare-fun fluent_position_free_p1@1 () Bool)
(declare-fun fluent_position_free_p2@1 () Bool)
(declare-fun act_load_at_depot@1 () Bool)
(declare-fun fluent_robot_has_r0_plt0@0 () Bool)
(declare-fun parameter_load_at_depot_pos@1 () Real)
(declare-fun fluent_ready_plt0_p0_t0@0 () Bool)
(declare-fun fluent_ready_plt0_p1_t0@0 () Bool)
(declare-fun fluent_ready_plt0_p2_t0@0 () Bool)
(declare-fun parameter_load_at_depot_r@1 () Real)
(declare-fun fluent_treated_plt0_t0@0 () Bool)
(declare-fun parameter_load_at_depot_pallet@1 () Real)
(declare-fun act_move@1 () Bool)
(declare-fun parameter_move_topos@1 () Real)
(declare-fun parameter_move_frompos@1 () Real)
(declare-fun act_unload_at_depot@1 () Bool)
(declare-fun parameter_unload_at_depot_pos@1 () Real)
(declare-fun parameter_move_r@1 () Real)
(declare-fun parameter_unload_at_depot_r@1 () Real)
(declare-fun parameter_unload_at_depot_pallet@1 () Real)
(declare-fun fluent_robot_at_r0_p0@1 () Bool)
(declare-fun fluent_robot_at_r0_p1@1 () Bool)
(declare-fun dur_make_treatment@1 () Real)
(declare-fun fluent_robot_at_r0_p2@1 () Bool)
(declare-fun t@1 () Real)
(declare-fun fluent_battery_level_r0@1 () Real)
(declare-fun parameter_make_treatment_t@1 () Real)
(declare-fun parameter_make_treatment_pallet@1 () Real)
(declare-fun parameter_make_treatment_r@1 () Real)
(declare-fun act_load@1 () Bool)
(declare-fun parameter_load_t@1 () Real)
(declare-fun parameter_make_treatment_pos@1 () Real)
(declare-fun parameter_load_pos@1 () Real)
(declare-fun parameter_load_pallet@1 () Real)
(declare-fun parameter_load_r@1 () Real)
(assert (let ((.def_0 (= parameter_load_r@1 0.0))) (let ((.def_1 (= parameter_load_pallet@1 4.0))) (let ((.def_2 (= parameter_load_pos@1 3.0))) (let ((.def_3 (= parameter_load_pos@1 2.0))) (let ((.def_4 (= parameter_load_pos@1 1.0))) (let ((.def_5 (or .def_4 .def_3 .def_2))) (let ((.def_6 (= parameter_make_treatment_pos@1 3.0))) (let ((.def_7 (= parameter_make_treatment_pos@1 2.0))) (let ((.def_8 (= parameter_make_treatment_pos@1 1.0))) (let ((.def_9 (or .def_8 .def_7 .def_6))) (let ((.def_10 (= parameter_load_t@1 5.0))) (let ((.def_11 (= parameter_make_treatment_r@1 0.0))) (let ((.def_12 (= parameter_make_treatment_pallet@1 4.0))) (let ((.def_13 (= parameter_make_treatment_t@1 5.0))) (let ((.def_14 (<= fluent_battery_level_r0@1 100.0))) (let ((.def_15 (<= 0.0 fluent_battery_level_r0@1))) (let ((.def_16 (= parameter_unload_at_depot_pallet@1 4.0))) (let ((.def_17 (= parameter_unload_at_depot_r@1 0.0))) (let ((.def_18 (= parameter_unload_at_depot_pos@1 3.0))) (let ((.def_19 (= parameter_unload_at_depot_pos@1 2.0))) (let ((.def_20 (= parameter_unload_at_depot_pos@1 1.0))) (let ((.def_21 (or .def_20 .def_19 .def_18))) (let ((.def_22 (= parameter_move_r@1 0.0))) (let ((.def_23 (= parameter_move_frompos@1 3.0))) (let ((.def_24 (= parameter_move_frompos@1 2.0))) (let ((.def_25 (= parameter_move_frompos@1 1.0))) (let ((.def_26 (or .def_25 .def_24 .def_23))) (let ((.def_27 (= parameter_move_topos@1 3.0))) (let ((.def_28 (= parameter_move_topos@1 2.0))) (let ((.def_29 (= parameter_move_topos@1 1.0))) (let ((.def_30 (or .def_29 .def_28 .def_27))) (let ((.def_31 (= parameter_load_at_depot_pallet@1 4.0))) (let ((.def_32 (= parameter_load_at_depot_r@1 0.0))) (let ((.def_33 (= parameter_load_at_depot_pos@1 3.0))) (let ((.def_34 (= parameter_load_at_depot_pos@1 2.0))) (let ((.def_35 (= parameter_load_at_depot_pos@1 1.0))) (let ((.def_36 (or .def_35 .def_34 .def_33))) (let ((.def_37 (and act_move@1 true .def_22))) (let ((.def_38 (= fluent_battery_level_r0@0 fluent_battery_level_r0@1))) (let ((.def_39 (not .def_38))) (let ((.def_40 (=> .def_39 .def_37))) (let ((.def_41 (and act_make_treatment@1 true .def_12 .def_6))) (let ((.def_42 (and act_unload_at_depot@1 true .def_16 .def_18))) (let ((.def_43 (and .def_42 .def_41))) (let ((.def_44 (not .def_43))) (let ((.def_45 (and act_load_at_depot@1 true .def_31 .def_33))) (let ((.def_46 (and .def_45 .def_41))) (let ((.def_47 (not .def_46))) (let ((.def_48 (and .def_45 .def_42))) (let ((.def_49 (not .def_48))) (let ((.def_50 (and act_load@1 true .def_1 .def_2))) (let ((.def_51 (and .def_50 .def_41))) (let ((.def_52 (not .def_51))) (let ((.def_53 (and .def_50 .def_42))) (let ((.def_54 (not .def_53))) (let ((.def_55 (and .def_50 .def_45))) (let ((.def_56 (not .def_55))) (let ((.def_57 (or .def_50 .def_45 .def_42 .def_41))) (let ((.def_58 (= fluent_pallet_at_plt0_p2@0 fluent_pallet_at_plt0_p2@1))) (let ((.def_59 (not .def_58))) (let ((.def_60 (=> .def_59 .def_57))) (let ((.def_61 (and act_make_treatment@1 true .def_12 .def_7))) (let ((.def_62 (and act_unload_at_depot@1 true .def_16 .def_19))) (let ((.def_63 (and .def_62 .def_61))) (let ((.def_64 (not .def_63))) (let ((.def_65 (and act_load_at_depot@1 true .def_31 .def_34))) (let ((.def_66 (and .def_65 .def_61))) (let ((.def_67 (not .def_66))) (let ((.def_68 (and .def_65 .def_62))) (let ((.def_69 (not .def_68))) (let ((.def_70 (and act_load@1 true .def_1 .def_3))) (let ((.def_71 (and .def_70 .def_61))) (let ((.def_72 (not .def_71))) (let ((.def_73 (and .def_70 .def_62))) (let ((.def_74 (not .def_73))) (let ((.def_75 (and .def_70 .def_65))) (let ((.def_76 (not .def_75))) (let ((.def_77 (or .def_70 .def_65 .def_62 .def_61))) (let ((.def_78 (= fluent_pallet_at_plt0_p1@0 fluent_pallet_at_plt0_p1@1))) (let ((.def_79 (not .def_78))) (let ((.def_80 (=> .def_79 .def_77))) (let ((.def_81 (and act_make_treatment@1 true .def_12 .def_8))) (let ((.def_82 (and act_unload_at_depot@1 true .def_16 .def_20))) (let ((.def_83 (and .def_82 .def_81))) (let ((.def_84 (not .def_83))) (let ((.def_85 (and act_load_at_depot@1 true .def_31 .def_35))) (let ((.def_86 (and .def_85 .def_81))) (let ((.def_87 (not .def_86))) (let ((.def_88 (and .def_85 .def_82))) (let ((.def_89 (not .def_88))) (let ((.def_90 (and act_load@1 true .def_1 .def_4))) (let ((.def_91 (and .def_90 .def_81))) (let ((.def_92 (not .def_91))) (let ((.def_93 (and .def_90 .def_82))) (let ((.def_94 (not .def_93))) (let ((.def_95 (and .def_90 .def_85))) (let ((.def_96 (not .def_95))) (let ((.def_97 (or .def_90 .def_85 .def_82 .def_81))) (let ((.def_98 (= fluent_pallet_at_plt0_p0@0 fluent_pallet_at_plt0_p0@1))) (let ((.def_99 (not .def_98))) (let ((.def_100 (=> .def_99 .def_97))) (let ((.def_101 (and act_load@1 true .def_1 .def_10))) (let ((.def_102 (= fluent_treated_plt0_t0@0 fluent_treated_plt0_t0@1))) (let ((.def_103 (not .def_102))) (let ((.def_104 (=> .def_103 .def_101))) (let ((.def_105 (and act_make_treatment@1 true .def_6))) (let ((.def_106 (and act_load@1 true .def_2))) (let ((.def_107 (and .def_106 .def_105))) (let ((.def_108 (not .def_107))) (let ((.def_109 (or .def_106 .def_105))) (let ((.def_110 (= fluent_position_free_p2@0 fluent_position_free_p2@1))) (let ((.def_111 (not .def_110))) (let ((.def_112 (=> .def_111 .def_109))) (let ((.def_113 (and act_make_treatment@1 true .def_7))) (let ((.def_114 (and act_load@1 true .def_3))) (let ((.def_115 (and .def_114 .def_113))) (let ((.def_116 (not .def_115))) (let ((.def_117 (or .def_114 .def_113))) (let ((.def_118 (= fluent_position_free_p1@0 fluent_position_free_p1@1))) (let ((.def_119 (not .def_118))) (let ((.def_120 (=> .def_119 .def_117))) (let ((.def_121 (and act_make_treatment@1 true .def_8))) (let ((.def_122 (and act_load@1 true .def_4))) (let ((.def_123 (and .def_122 .def_121))) (let ((.def_124 (not .def_123))) (let ((.def_125 (or .def_122 .def_121))) (let ((.def_126 (= fluent_position_free_p0@0 fluent_position_free_p0@1))) (let ((.def_127 (not .def_126))) (let ((.def_128 (=> .def_127 .def_125))) (let ((.def_129 (+ t@1 10.0))) (let ((.def_130 (= t@1 .def_129))) (let ((.def_131 (and act_make_treatment@1 true .def_130 .def_12 .def_6 .def_13))) (let ((.def_132 (and act_load@1 true .def_1 .def_2 .def_10))) (let ((.def_133 (and .def_132 .def_131))) (let ((.def_134 (not .def_133))) (let ((.def_135 (or .def_132 .def_131))) (let ((.def_136 (= fluent_ready_plt0_p2_t0@0 fluent_ready_plt0_p2_t0@1))) (let ((.def_137 (not .def_136))) (let ((.def_138 (=> .def_137 .def_135))) (let ((.def_139 (and act_make_treatment@1 true .def_130 .def_12 .def_7 .def_13))) (let ((.def_140 (and act_load@1 true .def_1 .def_3 .def_10))) (let ((.def_141 (and .def_140 .def_139))) (let ((.def_142 (not .def_141))) (let ((.def_143 (or .def_140 .def_139))) (let ((.def_144 (= fluent_ready_plt0_p1_t0@0 fluent_ready_plt0_p1_t0@1))) (let ((.def_145 (not .def_144))) (let ((.def_146 (=> .def_145 .def_143))) (let ((.def_147 (and act_make_treatment@1 true .def_130 .def_12 .def_8 .def_13))) (let ((.def_148 (and act_load@1 true .def_1 .def_4 .def_10))) (let ((.def_149 (and .def_148 .def_147))) (let ((.def_150 (not .def_149))) (let ((.def_151 (or .def_148 .def_147))) (let ((.def_152 (= fluent_ready_plt0_p0_t0@0 fluent_ready_plt0_p0_t0@1))) (let ((.def_153 (not .def_152))) (let ((.def_154 (=> .def_153 .def_151))) (let ((.def_155 (and act_make_treatment@1 true .def_11 .def_12))) (let ((.def_156 (and act_unload_at_depot@1 true .def_17 .def_16))) (let ((.def_157 (and .def_156 .def_155))) (let ((.def_158 (not .def_157))) (let ((.def_159 (and act_load_at_depot@1 true .def_32 .def_31))) (let ((.def_160 (and .def_159 .def_155))) (let ((.def_161 (not .def_160))) (let ((.def_162 (and .def_159 .def_156))) (let ((.def_163 (not .def_162))) (let ((.def_164 (and act_load@1 true .def_0 .def_1))) (let ((.def_165 (and .def_164 .def_155))) (let ((.def_166 (not .def_165))) (let ((.def_167 (and .def_164 .def_156))) (let ((.def_168 (not .def_167))) (let ((.def_169 (and .def_164 .def_159))) (let ((.def_170 (not .def_169))) (let ((.def_171 (or .def_164 .def_159 .def_156 .def_155))) (let ((.def_172 (= fluent_robot_has_r0_plt0@0 fluent_robot_has_r0_plt0@1))) (let ((.def_173 (not .def_172))) (let ((.def_174 (=> .def_173 .def_171))) (let ((.def_175 (and act_make_treatment@1 true .def_11))) (let ((.def_176 (and act_unload_at_depot@1 true .def_17))) (let ((.def_177 (and .def_176 .def_175))) (let ((.def_178 (not .def_177))) (let ((.def_179 (and act_load_at_depot@1 true .def_32))) (let ((.def_180 (and .def_179 .def_175))) (let ((.def_181 (not .def_180))) (let ((.def_182 (and .def_179 .def_176))) (let ((.def_183 (not .def_182))) (let ((.def_184 (and act_load@1 true .def_0))) (let ((.def_185 (and .def_184 .def_175))) (let ((.def_186 (not .def_185))) (let ((.def_187 (and .def_184 .def_176))) (let ((.def_188 (not .def_187))) (let ((.def_189 (and .def_184 .def_179))) (let ((.def_190 (not .def_189))) (let ((.def_191 (or .def_184 .def_179 .def_176 .def_175))) (let ((.def_192 (= fluent_robot_free_r0@0 fluent_robot_free_r0@1))) (let ((.def_193 (not .def_192))) (let ((.def_194 (=> .def_193 .def_191))) (let ((.def_195 (and act_move@1 true .def_22 .def_23))) (let ((.def_196 (and act_move@1 true .def_22 .def_27))) (let ((.def_197 (and .def_196 .def_195))) (let ((.def_198 (not .def_197))) (let ((.def_199 (or .def_196 .def_195))) (let ((.def_200 (= fluent_robot_at_r0_p2@0 fluent_robot_at_r0_p2@1))) (let ((.def_201 (not .def_200))) (let ((.def_202 (=> .def_201 .def_199))) (let ((.def_203 (and act_move@1 true .def_22 .def_24))) (let ((.def_204 (and act_move@1 true .def_22 .def_28))) (let ((.def_205 (and .def_204 .def_203))) (let ((.def_206 (not .def_205))) (let ((.def_207 (or .def_204 .def_203))) (let ((.def_208 (= fluent_robot_at_r0_p1@0 fluent_robot_at_r0_p1@1))) (let ((.def_209 (not .def_208))) (let ((.def_210 (=> .def_209 .def_207))) (let ((.def_211 (and act_move@1 true .def_22 .def_25))) (let ((.def_212 (and act_move@1 true .def_22 .def_29))) (let ((.def_213 (and .def_212 .def_211))) (let ((.def_214 (not .def_213))) (let ((.def_215 (or .def_212 .def_211))) (let ((.def_216 (= fluent_robot_at_r0_p0@0 fluent_robot_at_r0_p0@1))) (let ((.def_217 (not .def_216))) (let ((.def_218 (=> .def_217 .def_215))) (let ((.def_219 (and .def_218 .def_214 .def_210 .def_206 .def_202 .def_198 .def_194 .def_190 .def_188 .def_186 .def_183 .def_181 .def_178 .def_174 .def_170 .def_168 .def_166 .def_163 .def_161 .def_158 .def_154 .def_150 .def_146 .def_142 .def_138 .def_134 .def_128 .def_124 .def_120 .def_116 .def_112 .def_108 .def_104 .def_100 .def_96 .def_94 .def_92 .def_89 .def_87 .def_84 .def_80 .def_76 .def_74 .def_72 .def_69 .def_67 .def_64 .def_60 .def_56 .def_54 .def_52 .def_49 .def_47 .def_44 .def_40))) (let ((.def_220 (= t@1 t@1))) (let ((.def_221 (and act_make_treatment@1 act_unload_at_depot@1 .def_220))) (let ((.def_222 (not .def_221))) (let ((.def_223 (+ t@1 dur_make_treatment@1))) (let ((.def_224 (= .def_223 t@1))) (let ((.def_225 (and act_make_treatment@1 act_load@1 .def_224))) (let ((.def_226 (not .def_225))) (let ((.def_227 (and act_load_at_depot@1 act_load@1 .def_220))) (let ((.def_228 (not .def_227))) (let ((.def_229 (and act_move@1 act_make_treatment@1 .def_220))) (let ((.def_230 (not .def_229))) (let ((.def_231 (and act_load@1 act_unload_at_depot@1 .def_220))) (let ((.def_232 (not .def_231))) (let ((.def_233 (and act_make_treatment@1 act_load_at_depot@1 .def_220))) (let ((.def_234 (not .def_233))) (let ((.def_235 (and act_make_treatment@1 act_load@1 .def_220))) (let ((.def_236 (not .def_235))) (let ((.def_237 (= .def_129 t@1))) (let ((.def_238 (and act_make_treatment@1 act_load@1 .def_237))) (let ((.def_239 (not .def_238))) (let ((.def_240 (and act_move@1 act_load_at_depot@1 .def_220))) (let ((.def_241 (not .def_240))) (let ((.def_242 (and act_load_at_depot@1 act_unload_at_depot@1 .def_220))) (let ((.def_243 (not .def_242))) (let ((.def_244 (and act_move@1 act_unload_at_depot@1 .def_220))) (let ((.def_245 (not .def_244))) (let ((.def_246 (and act_move@1 act_load@1 .def_220))) (let ((.def_247 (not .def_246))) (let ((.def_248 (and .def_247 .def_245 .def_243 .def_241 .def_239 .def_236 .def_234 .def_232 .def_230 .def_228 .def_226 .def_222))) (let ((.def_249 (<= 0.0 t@1))) (let ((.def_250 (and .def_12 .def_7 .def_13))) (let ((.def_251 (ite .def_250 fluent_ready_plt0_p1_t0@1 fluent_ready_plt0_p0_t0@1))) (let ((.def_252 (and .def_12 .def_6 .def_13))) (let ((.def_253 (ite .def_252 fluent_ready_plt0_p2_t0@1 .def_251))) (let ((.def_254 (= .def_253 true))) (let ((.def_255 (=> true .def_254))) (let ((.def_256 (and .def_130 .def_255))) (let ((.def_257 (= fluent_robot_free_r0@1 true))) (let ((.def_258 (=> true .def_257))) (let ((.def_259 (and .def_12 .def_7))) (let ((.def_260 (ite .def_259 fluent_pallet_at_plt0_p1@1 fluent_pallet_at_plt0_p0@1))) (let ((.def_261 (and .def_12 .def_6))) (let ((.def_262 (ite .def_261 fluent_pallet_at_plt0_p2@1 .def_260))) (let ((.def_263 (= .def_262 true))) (let ((.def_264 (=> true .def_263))) (let ((.def_265 (= fluent_robot_has_r0_plt0@1 false))) (let ((.def_266 (=> true .def_265))) (let ((.def_267 (ite .def_7 fluent_position_free_p1@1 fluent_position_free_p0@1))) (let ((.def_268 (ite .def_6 fluent_position_free_p2@1 .def_267))) (let ((.def_269 (= .def_268 false))) (let ((.def_270 (=> true .def_269))) (let ((.def_271 (and .def_220 .def_270 .def_266 .def_264 .def_258))) (let ((.def_272 (ite .def_7 fluent_position_free_p1@0 fluent_position_free_p0@0))) (let ((.def_273 (ite .def_6 fluent_position_free_p2@0 .def_272))) (let ((.def_274 (and fluent_treated_plt0_t0@0 .def_273))) (let ((.def_275 (<= .def_223 t@1))) (let ((.def_276 (< (- 1.0) .def_223))) (let ((.def_277 (and .def_276 .def_275))) (let ((.def_278 (=> .def_277 .def_274))) (let ((.def_279 (not fluent_treated_plt0_t0@0))) (let ((.def_280 (and .def_11 .def_7))) (let ((.def_281 (ite .def_280 fluent_robot_at_r0_p1@0 fluent_robot_at_r0_p0@0))) (let ((.def_282 (and .def_11 .def_6))) (let ((.def_283 (ite .def_282 fluent_robot_at_r0_p2@0 .def_281))) (let ((.def_284 (and .def_7 .def_13))) (let ((.def_285 (ite .def_284 false true))) (let ((.def_286 (and .def_6 .def_13))) (let ((.def_287 (ite .def_286 false .def_285))) (let ((.def_288 (and .def_287 .def_273 .def_283 fluent_robot_has_r0_plt0@0 .def_279))) (let ((.def_289 (<= t@1 t@1))) (let ((.def_290 (< (- 1.0) t@1))) (let ((.def_291 (and .def_290 .def_289))) (let ((.def_292 (=> .def_291 .def_288))) (let ((.def_293 (<= dur_make_treatment@1 20.0))) (let ((.def_294 (<= 20.0 dur_make_treatment@1))) (let ((.def_295 (and .def_294 .def_293))) (let ((.def_296 (and .def_295 .def_275 .def_292 .def_278 .def_271 .def_256))) (let ((.def_297 (=> act_make_treatment@1 .def_296))) (let ((.def_298 (and .def_16 .def_19))) (let ((.def_299 (ite .def_298 fluent_pallet_at_plt0_p1@1 fluent_pallet_at_plt0_p0@1))) (let ((.def_300 (and .def_16 .def_18))) (let ((.def_301 (ite .def_300 fluent_pallet_at_plt0_p2@1 .def_299))) (let ((.def_302 (= .def_301 true))) (let ((.def_303 (=> true .def_302))) (let ((.def_304 (and .def_17 .def_19))) (let ((.def_305 (ite .def_304 fluent_robot_at_r0_p1@0 fluent_robot_at_r0_p0@0))) (let ((.def_306 (and .def_17 .def_18))) (let ((.def_307 (ite .def_306 fluent_robot_at_r0_p2@0 .def_305))) (let ((.def_308 (ite .def_19 false false))) (let ((.def_309 (ite .def_18 true .def_308))) (let ((.def_310 (and .def_309 .def_307 fluent_robot_has_r0_plt0@0 .def_303 .def_258 .def_266))) (let ((.def_311 (=> act_unload_at_depot@1 .def_310))) (let ((.def_312 (and .def_31 .def_34))) (let ((.def_313 (ite .def_312 fluent_pallet_at_plt0_p1@1 fluent_pallet_at_plt0_p0@1))) (let ((.def_314 (and .def_31 .def_33))) (let ((.def_315 (ite .def_314 fluent_pallet_at_plt0_p2@1 .def_313))) (let ((.def_316 (= .def_315 false))) (let ((.def_317 (=> true .def_316))) (let ((.def_318 (= fluent_robot_has_r0_plt0@1 true))) (let ((.def_319 (=> true .def_318))) (let ((.def_320 (= fluent_robot_free_r0@1 false))) (let ((.def_321 (=> true .def_320))) (let ((.def_322 (ite .def_312 fluent_pallet_at_plt0_p1@0 fluent_pallet_at_plt0_p0@0))) (let ((.def_323 (ite .def_314 fluent_pallet_at_plt0_p2@0 .def_322))) (let ((.def_324 (and .def_32 .def_34))) (let ((.def_325 (ite .def_324 fluent_robot_at_r0_p1@0 fluent_robot_at_r0_p0@0))) (let ((.def_326 (and .def_32 .def_33))) (let ((.def_327 (ite .def_326 fluent_robot_at_r0_p2@0 .def_325))) (let ((.def_328 (ite .def_34 false false))) (let ((.def_329 (ite .def_33 true .def_328))) (let ((.def_330 (and .def_329 .def_327 fluent_robot_free_r0@0 .def_323 .def_321 .def_319 .def_317))) (let ((.def_331 (=> act_load_at_depot@1 .def_330))) (let ((.def_332 (ite .def_3 fluent_position_free_p1@1 fluent_position_free_p0@1))) (let ((.def_333 (ite .def_2 fluent_position_free_p2@1 .def_332))) (let ((.def_334 (= .def_333 true))) (let ((.def_335 (=> true .def_334))) (let ((.def_336 (= fluent_treated_plt0_t0@1 true))) (let ((.def_337 (=> true .def_336))) (let ((.def_338 (and .def_1 .def_3))) (let ((.def_339 (ite .def_338 fluent_pallet_at_plt0_p1@1 fluent_pallet_at_plt0_p0@1))) (let ((.def_340 (and .def_1 .def_2))) (let ((.def_341 (ite .def_340 fluent_pallet_at_plt0_p2@1 .def_339))) (let ((.def_342 (= .def_341 false))) (let ((.def_343 (=> true .def_342))) (let ((.def_344 (and .def_1 .def_3 .def_10))) (let ((.def_345 (ite .def_344 fluent_ready_plt0_p1_t0@1 fluent_ready_plt0_p0_t0@1))) (let ((.def_346 (and .def_1 .def_2 .def_10))) (let ((.def_347 (ite .def_346 fluent_ready_plt0_p2_t0@1 .def_345))) (let ((.def_348 (= .def_347 false))) (let ((.def_349 (=> true .def_348))) (let ((.def_350 (ite .def_338 fluent_pallet_at_plt0_p1@0 fluent_pallet_at_plt0_p0@0))) (let ((.def_351 (ite .def_340 fluent_pallet_at_plt0_p2@0 .def_350))) (let ((.def_352 (and .def_0 .def_3))) (let ((.def_353 (ite .def_352 fluent_robot_at_r0_p1@0 fluent_robot_at_r0_p0@0))) (let ((.def_354 (and .def_0 .def_2))) (let ((.def_355 (ite .def_354 fluent_robot_at_r0_p2@0 .def_353))) (let ((.def_356 (ite .def_344 fluent_ready_plt0_p1_t0@0 fluent_ready_plt0_p0_t0@0))) (let ((.def_357 (ite .def_346 fluent_ready_plt0_p2_t0@0 .def_356))) (let ((.def_358 (and .def_357 .def_355 fluent_robot_free_r0@0 .def_351 .def_321 .def_349 .def_343 .def_319 .def_337 .def_335))) (let ((.def_359 (=> act_load@1 .def_358))) (let ((.def_360 (and .def_24 .def_29))) (let ((.def_361 (ite .def_360 1.0 0.0))) (let ((.def_362 (and .def_23 .def_29))) (let ((.def_363 (ite .def_362 2.0 .def_361))) (let ((.def_364 (and .def_25 .def_28))) (let ((.def_365 (ite .def_364 1.0 .def_363))) (let ((.def_366 (and .def_24 .def_28))) (let ((.def_367 (ite .def_366 0.0 .def_365))) (let ((.def_368 (and .def_23 .def_28))) (let ((.def_369 (ite .def_368 1.0 .def_367))) (let ((.def_370 (and .def_25 .def_27))) (let ((.def_371 (ite .def_370 2.0 .def_369))) (let ((.def_372 (and .def_24 .def_27))) (let ((.def_373 (ite .def_372 1.0 .def_371))) (let ((.def_374 (and .def_23 .def_27))) (let ((.def_375 (ite .def_374 0.0 .def_373))) (let ((.def_376 (- fluent_battery_level_r0@0 .def_375))) (let ((.def_377 (= fluent_battery_level_r0@1 .def_376))) (let ((.def_378 (=> true .def_377))) (let ((.def_379 (and .def_22 .def_24))) (let ((.def_380 (ite .def_379 fluent_robot_at_r0_p1@1 fluent_robot_at_r0_p0@1))) (let ((.def_381 (and .def_22 .def_23))) (let ((.def_382 (ite .def_381 fluent_robot_at_r0_p2@1 .def_380))) (let ((.def_383 (= .def_382 false))) (let ((.def_384 (=> true .def_383))) (let ((.def_385 (and .def_22 .def_28))) (let ((.def_386 (ite .def_385 fluent_robot_at_r0_p1@1 fluent_robot_at_r0_p0@1))) (let ((.def_387 (and .def_22 .def_27))) (let ((.def_388 (ite .def_387 fluent_robot_at_r0_p2@1 .def_386))) (let ((.def_389 (= .def_388 true))) (let ((.def_390 (=> true .def_389))) (let ((.def_391 (<= .def_375 fluent_battery_level_r0@0))) (let ((.def_392 (ite .def_379 fluent_robot_at_r0_p1@0 fluent_robot_at_r0_p0@0))) (let ((.def_393 (ite .def_381 fluent_robot_at_r0_p2@0 .def_392))) (let ((.def_394 (= parameter_move_frompos@1 parameter_move_topos@1))) (let ((.def_395 (not .def_394))) (let ((.def_396 (and .def_395 .def_393 .def_391 .def_390 .def_384 .def_378))) (let ((.def_397 (=> act_move@1 .def_396))) (let ((.def_398 (<= fluent_battery_level_r0@0 100.0))) (let ((.def_399 (<= 0.0 fluent_battery_level_r0@0))) (let ((.def_400 (= false false))) (let ((.def_401 (= fluent_pallet_at_plt0_p1@0 false))) (let ((.def_402 (= fluent_pallet_at_plt0_p0@0 false))) (let ((.def_403 (= fluent_treated_plt0_t0@0 false))) (let ((.def_404 (= fluent_ready_plt0_p2_t0@0 false))) (let ((.def_405 (= fluent_ready_plt0_p1_t0@0 false))) (let ((.def_406 (= fluent_ready_plt0_p0_t0@0 false))) (let ((.def_407 (= fluent_robot_has_r0_plt0@0 false))) (let ((.def_408 (= fluent_robot_at_r0_p1@0 false))) (let ((.def_409 (= fluent_robot_at_r0_p0@0 false))) (let ((.def_410 (= true true))) (let ((.def_411 (= fluent_position_free_p2@0 true))) (let ((.def_412 (= fluent_position_free_p1@0 true))) (let ((.def_413 (= fluent_position_free_p0@0 true))) (let ((.def_414 (= 0.0 0.0))) (let ((.def_415 (= 1.0 1.0))) (let ((.def_416 (= 2.0 2.0))) (let ((.def_417 (= fluent_battery_level_r0@0 6.0))) (let ((.def_418 (= fluent_pallet_at_plt0_p2@0 true))) (let ((.def_419 (= fluent_robot_free_r0@0 true))) (let ((.def_420 (= fluent_robot_at_r0_p2@0 true))) (let ((.def_421 (and .def_420 .def_419 .def_418 .def_417 .def_414 .def_415 .def_415 .def_416 .def_416 .def_414 .def_415 .def_415 .def_414 .def_410 .def_413 .def_412 .def_411 .def_410 .def_409 .def_408 .def_407 .def_406 .def_405 .def_404 .def_403 .def_402 .def_401 .def_400 .def_400 .def_400 .def_400 .def_399 .def_398))) (let ((.def_422 (and .def_421 .def_397 .def_359 .def_331 .def_311 .def_297 .def_249 .def_248 true .def_219 .def_36 .def_32 .def_31 .def_30 .def_26 .def_22 .def_21 .def_17 .def_16 .def_15 .def_14 .def_13 .def_12 .def_11 .def_10 .def_9 .def_5 .def_1 .def_0 true))) .def_422))))))))))))))))))))))))))))))))))))))))))))))))))))))))))))))))))))))))))))))))))))))))))))))))))))))))))))))))))))))))))))))))))))))))))))))))))))))))))))))))))))))))))))))))))))))))))))))))))))))))))))))))))))))))))))))))))))))))))))))))))))))))))))))))))))))))))))))))))))))))))))))))))))))))))))))))))))))))))))))))))))))))))))))))))))))))))))))))))))))))))))))))))))))))))))))))))))))))))))))))))))))))))))))))))))))))
(check-sat)


